p cnf 193 393
-1 10 16 23 27 50 54 79 97 100 179 -14 -180 -185 -186 0 
-2 180 -185 -186 0 
-3 35 40 60 91 127 133 134 136 143 176 179 -14 -180 -185 -186 0 
-4 7 28 45 51 78 118 131 132 156 169 -5 181 -180 -185 -186 0 
-6 -7 4 28 45 51 78 118 131 132 156 169 -8 141 181 -180 -185 -186 0 
-9 44 73 -10 1 16 23 27 50 54 79 97 100 182 -180 -185 -186 0 
-9 44 73 -11 182 -180 -185 -186 0 
-12 -9 44 73 -13 -14 -15 24 56 103 148 166 183 -180 -185 -186 0 
-9 44 73 -16 1 10 23 27 50 54 79 97 100 182 -180 -185 -186 0 
-13 -12 183 -180 -185 -186 0 
-13 -17 -12 183 -180 -185 -186 0 
-18 184 -180 -185 -186 0 
-19 -20 33 42 52 64 80 109 113 152 172 174 175 184 -180 -185 -186 0 
-21 153 -22 173 185 -180 -186 0 
-23 1 10 16 27 50 54 79 97 100 184 -180 -185 -186 0 
-24 15 56 103 148 166 180 -185 -186 0 
-25 180 -185 -186 0 
-26 32 138 180 -185 -186 0 
-27 1 10 16 23 50 54 79 97 100 180 -185 -186 0 
-28 4 7 45 51 78 118 131 132 156 169 -29 180 -185 -186 0 
-30 59 69 -31 49 111 117 160 161 180 -185 -186 0 
-32 26 138 -33 20 42 52 64 80 109 113 152 172 174 175 -34 41 55 61 72 81 101 102 107 162 165 167 -35 3 40 60 91 127 133 134 136 143 176 179 -14 -180 -185 -186 0 
-36 186 -180 -185 0 
-37 -17 -38 -39 88 128 -40 3 35 60 91 127 133 134 136 143 176 179 -14 -180 -185 -186 0 
-30 59 69 180 -185 -186 0 
-41 34 55 61 72 81 101 102 107 162 165 167 -42 20 33 52 64 80 109 113 152 172 174 175 179 -14 -180 -185 -186 0 
-43 180 -185 -186 0 
-44 9 73 -45 4 7 28 51 78 118 131 132 156 169 -46 -47 -48 149 181 -180 -185 -186 0 
-17 -24 15 56 103 148 166 -49 31 111 117 160 161 180 -185 -186 0 
-32 26 138 -33 20 42 52 64 80 109 113 152 172 174 175 -50 1 10 16 23 27 54 79 97 100 179 -14 -180 -185 -186 0 
-38 -32 26 138 -50 1 10 16 23 27 54 79 97 100 179 -14 -180 -185 -186 0 
-51 4 7 28 45 78 118 131 132 156 169 -52 20 33 42 64 80 109 113 152 172 174 175 -53 183 -180 -185 -186 0 
-54 1 10 16 23 27 50 79 97 100 187 -180 -185 -186 0 
-55 34 41 61 72 81 101 102 107 162 165 167 180 -185 -186 0 
-56 15 24 103 148 166 180 -185 -186 0 
-57 180 -185 -186 0 
-32 26 138 -58 186 -180 -185 0 
-59 30 69 -60 3 35 40 91 127 133 134 136 143 176 -9 44 73 -61 34 41 55 72 81 101 102 107 162 165 167 182 -180 -185 -186 0 
-62 -63 182 -180 -185 -186 0 
-15 24 56 103 148 166 -5 183 -180 -185 -186 0 
-64 20 33 42 52 80 109 113 152 172 174 175 -65 182 -180 -185 -186 0 
-66 -67 182 -180 -185 -186 0 
-68 182 -180 -185 -186 0 
-10 1 16 23 27 50 54 79 97 100 -69 30 59 188 -180 -185 -186 0 
-9 44 73 180 -185 -186 0 
-70 182 -180 -185 -186 0 
-71 104 106 188 -180 -185 -186 0 
-69 30 59 188 -180 -185 -186 0 
-72 34 41 55 61 81 101 102 107 162 165 167 182 -180 -185 -186 0 
-73 9 44 189 -180 -185 -186 0 
-74 178 183 -180 -185 -186 0 
-75 180 -185 -186 0 
-26 32 138 -57 180 -185 -186 0 
-24 15 56 103 148 166 -57 180 -185 -186 0 
-76 85 -77 164 -57 179 -14 -180 -185 -186 0 
-78 4 7 28 45 51 118 131 132 156 169 180 -185 -186 0 
-79 1 10 16 23 27 50 54 97 100 180 -185 -186 0 
-80 20 33 42 52 64 109 113 152 172 174 175 180 -185 -186 0 
-81 34 41 55 61 72 101 102 107 162 165 167 180 -185 -186 0 
-82 130 180 -185 -186 0 
-24 15 56 103 148 166 -83 180 -185 -186 0 
-14 -75 -84 180 -185 -186 0 
-75 -83 180 -185 -186 0 
-28 4 7 45 51 78 118 131 132 156 169 180 -185 -186 0 
-85 76 180 -185 -186 0 
-86 155 180 -185 -186 0 
-5 182 -180 -185 -186 0 
-20 33 42 52 64 80 109 113 152 172 174 175 184 -180 -185 -186 0 
-26 32 138 -24 15 56 103 148 166 180 -185 -186 0 
-3 35 40 60 91 127 133 134 136 143 176 -87 179 -14 -180 -185 -186 0 
-88 39 128 179 -14 -180 -185 -186 0 
-89 -90 115 184 -180 -185 -186 0 
-91 3 35 40 60 127 133 134 136 143 176 -92 190 -180 -185 -186 0 
-93 191 -180 -185 -186 -9 -44 -73 0 
-94 180 -185 -186 0 
-95 180 -185 -186 0 
-21 153 -96 -57 180 -185 -186 0 
-97 1 10 16 23 27 50 54 79 100 187 -180 -185 -186 0 
-21 153 -1 10 16 23 27 50 54 79 97 100 179 -14 -180 -185 -186 0 
-98 180 -185 -186 0 
-99 180 -185 -186 0 
-100 1 10 16 23 27 50 54 79 97 180 -185 -186 0 
-101 34 41 55 61 72 81 102 107 162 165 167 179 -14 -180 -185 -186 0 
-102 34 41 55 61 72 81 101 107 162 165 167 179 -14 -180 -185 -186 0 
-90 115 -103 15 24 56 148 166 184 -180 -185 -186 0 
-65 182 -180 -185 -186 0 
-104 71 106 183 -180 -185 -186 0 
-105 -92 190 -180 -185 -186 0 
-13 -106 71 104 -107 34 41 55 61 72 81 101 102 162 165 167 183 -180 -185 -186 0 
-108 179 -14 -180 -185 -186 0 
-109 20 33 42 52 64 80 113 152 172 174 175 -24 15 56 103 148 166 180 -185 -186 0 
-109 20 33 42 52 64 80 113 152 172 174 175 180 -185 -186 0 
-14 -109 20 33 42 52 64 80 113 152 172 174 175 180 -185 -186 0 
-110 191 -180 -185 -186 -9 -44 -73 0 
-3 35 40 60 91 127 133 134 136 143 176 -42 20 33 52 64 80 109 113 152 172 174 175 179 -14 -180 -185 -186 0 
-21 153 -3 35 40 60 91 127 133 134 136 143 176 -42 20 33 52 64 80 109 113 152 172 174 175 179 -14 -180 -185 -186 0 
-24 15 56 103 148 166 -111 31 49 117 160 161 180 -185 -186 0 
-112 114 -113 20 33 42 52 64 80 109 152 172 174 175 184 -180 -185 -186 0 
-21 153 180 -185 -186 0 
-114 112 -14 -115 90 -113 20 33 42 52 64 80 109 152 172 174 175 184 -180 -185 -186 0 
-116 184 -180 -185 -186 0 
-17 -3 35 40 60 91 127 133 134 136 143 176 -42 20 33 52 64 80 109 113 152 172 174 175 179 -14 -180 -185 -186 0 
-24 15 56 103 148 166 -117 31 49 111 160 161 180 -185 -186 0 
-118 4 7 28 45 51 78 131 132 156 169 -119 125 180 -185 -186 0 
-75 -96 180 -185 -186 0 
-24 15 56 103 148 166 -96 180 -185 -186 0 
-32 26 138 -96 180 -185 -186 0 
-32 26 138 -120 129 -121 186 -180 -185 0 
-42 20 33 52 64 80 109 113 152 172 174 175 -41 34 55 61 72 81 101 102 107 162 165 167 179 -14 -180 -185 -186 0 
-122 -65 191 -180 -185 -186 -9 -44 -73 0 
-65 191 -180 -185 -186 -9 -44 -73 0 
-123 180 -185 -186 0 
-119 125 -96 180 -185 -186 0 
-124 -125 119 182 -180 -185 -186 0 
-9 44 73 -126 182 -180 -185 -186 0 
-9 44 73 -127 3 35 40 60 91 133 134 136 143 176 182 -180 -185 -186 0 
-128 39 88 -111 31 49 117 160 161 180 -185 -186 0 
-96 180 -185 -186 0 
-129 120 180 -185 -186 0 
-82 130 -24 15 56 103 148 166 180 -185 -186 0 
-14 -130 82 -86 155 180 -185 -186 0 
-131 4 7 28 45 51 78 118 132 156 169 180 -185 -186 0 
-75 -24 15 56 103 148 166 180 -185 -186 0 
-4 7 28 45 51 78 118 131 132 156 169 180 -185 -186 0 
-14 -25 180 -185 -186 0 
-132 4 7 28 45 51 78 118 131 156 169 180 -185 -186 0 
-133 3 35 40 60 91 127 134 136 143 176 180 -185 -186 0 
-17 -78 4 7 28 45 51 118 131 132 156 169 180 -185 -186 0 
-134 3 35 40 60 91 127 133 136 143 176 180 -185 -186 0 
-135 180 -185 -186 0 
-136 3 35 40 60 91 127 133 134 143 176 -137 192 -180 -185 -186 0 
-137 192 -180 -185 -186 0 
-138 26 32 179 -14 -180 -185 -186 0 
-14 -32 26 138 -80 20 33 42 52 64 109 113 152 172 174 175 180 -185 -186 0 
-139 142 180 -185 -186 0 
-140 180 -185 -186 0 
-141 8 180 -185 -186 0 
-142 139 180 -185 -186 0 
-143 3 35 40 60 91 127 133 134 136 176 180 -185 -186 0 
-14 -21 153 -141 8 180 -185 -186 0 
-144 180 -185 -186 0 
-145 191 -180 -185 -186 -9 -44 -73 0 
-146 191 -180 -185 -186 -9 -44 -73 0 
-147 191 -180 -185 -186 -9 -44 -73 0 
-148 15 24 56 103 166 191 -180 -185 -186 -9 -44 -73 0 
-149 48 -150 -151 193 -180 -185 -186 0 
-147 -151 181 -180 -185 -186 0 
-152 20 33 42 52 64 80 109 113 172 174 175 187 -180 -185 -186 0 
-141 8 191 -180 -185 -186 -9 -44 -73 0 
-153 21 -83 180 -185 -186 0 
-154 -83 180 -185 -186 0 
-155 86 180 -185 -186 0 
-102 34 41 55 61 72 81 101 107 162 165 167 -94 191 -180 -185 -186 -9 -44 -73 0 
-14 -43 180 -185 -186 0 
-156 4 7 28 45 51 78 118 131 132 169 180 -185 -186 0 
-37 179 -14 -180 -185 -186 0 
-17 -24 15 56 103 148 166 180 -185 -186 0 
-9 44 73 -157 180 -185 -186 0 
-41 34 55 61 72 81 101 102 107 162 165 167 -87 179 -14 -180 -185 -186 0 
-26 32 138 -33 20 42 52 64 80 109 113 152 172 174 175 185 -180 -186 0 
-38 -32 26 138 186 -180 -185 0 
-21 153 -33 20 42 52 64 80 109 113 152 172 174 175 185 -180 -186 0 
-153 21 -96 186 -180 -185 0 
-158 185 -180 -186 0 
-153 21 186 -180 -185 0 
-32 26 138 186 -180 -185 0 
-159 188 -180 -185 -186 0 
-14 -21 153 -134 3 35 40 60 91 127 133 136 143 176 -160 31 49 111 117 161 180 -185 -186 0 
-14 -134 3 35 40 60 91 127 133 136 143 176 -161 31 49 111 117 160 180 -185 -186 0 
-162 34 41 55 61 72 81 101 102 107 165 167 179 -14 -180 -185 -186 0 
-96 -57 180 -185 -186 0 
-24 15 56 103 148 166 -163 180 -185 -186 0 
-164 77 180 -185 -186 0 
-32 26 138 -121 186 -180 -185 0 
-165 34 41 55 61 72 81 101 102 107 162 167 191 -180 -185 -186 -9 -44 -73 0 
-166 15 24 56 103 148 180 -185 -186 0 
-38 -166 15 24 56 103 148 180 -185 -186 0 
-128 39 88 180 -185 -186 0 
-167 34 41 55 61 72 81 101 102 107 162 165 180 -185 -186 0 
-14 -24 15 56 103 148 166 180 -185 -186 0 
-38 -43 180 -185 -186 0 
-14 -157 180 -185 -186 0 
-168 180 -185 -186 0 
-157 180 -185 -186 0 
-17 -128 39 88 -129 120 180 -185 -186 0 
-169 4 7 28 45 51 78 118 131 132 156 -170 187 -180 -185 -186 0 
-171 180 -185 -186 0 
-172 20 33 42 52 64 80 109 113 152 174 175 180 -185 -186 0 
-153 21 -173 22 179 -14 -180 -185 -186 0 
-172 20 33 42 52 64 80 109 113 152 174 175 191 -180 -185 -186 -9 -44 -73 0 
-174 20 33 42 52 64 80 109 113 152 172 175 191 -180 -185 -186 -9 -44 -73 0 
-141 8 -129 120 191 -180 -185 -186 -9 -44 -73 0 
-174 20 33 42 52 64 80 109 113 152 172 175 180 -185 -186 0 
-175 20 33 42 52 64 80 109 113 152 172 174 191 -180 -185 -186 -9 -44 -73 0 
-176 3 35 40 60 91 127 133 134 136 143 179 -14 -180 -185 -186 0 
-175 20 33 42 52 64 80 109 113 152 172 174 180 -185 -186 0 
-177 179 -14 -180 -185 -186 0 
-75 -178 74 180 -185 -186 0 
-32 26 138 -102 34 41 55 61 72 81 101 107 162 165 167 179 -14 -180 -185 -186 0 
-3 35 40 60 91 127 133 134 136 143 176 -88 39 128 179 -14 -180 -185 -186 0 
49 55 154 0 
-76 -148 -152 0 
112 -162 -183 0 
83 99 119 0 
28 50 -191 0 
19 -57 189 0 
19 -107 160 0 
-45 142 187 0 
-15 60 140 0 
36 -60 187 0 
136 -147 -178 0 
-23 27 68 0 
-73 -102 -190 0 
-46 -68 155 0 
49 120 163 0 
94 -106 154 0 
88 -184 -191 0 
-7 80 -103 0 
-24 -31 -38 0 
20 -25 123 0 
16 -95 109 0 
9 30 83 0 
-108 -135 145 0 
-6 44 -84 0 
97 -114 -127 0 
65 -111 148 0 
62 -116 -159 0 
49 -80 89 0 
-45 86 93 0 
124 161 165 0 
20 -31 184 0 
-80 162 185 0 
4 -6 56 0 
-40 40 61 0 
-60 106 123 0 
29 -30 136 0 
43 -43 -145 0 
67 -111 173 0 
82 86 -133 0 
70 -95 111 0 
124 -137 -156 0 
60 -124 154 0 
1 48 -67 0 
48 -120 151 0 
46 -139 190 0 
58 97 185 0 
14 -37 96 0 
40 90 -156 0 
-7 52 156 0 
-29 -80 -128 0 
4 15 -160 0 
-53 -101 -140 0 
-17 -63 -165 0 
-71 -80 -100 0 
-65 83 162 0 
47 -53 -122 0 
53 110 151 0 
128 154 163 0 
57 -115 -135 0 
7 87 -127 0 
-37 185 188 0 
-68 77 123 0 
11 -133 144 0 
9 33 103 0 
-22 86 -133 0 
120 182 184 0 
-89 -111 -136 0 
32 -123 -169 0 
11 -17 64 0 
-5 8 -108 0 
42 49 -109 0 
135 141 -172 0 
-42 48 -179 0 
48 -154 -172 0 
112 145 -167 0 
-164 -177 193 0 
28 -66 111 0 
-122 141 174 0 
-132 -133 176 0 
-40 49 -97 0 
-23 -60 -71 0 
-4 21 76 0 
-22 54 176 0 
-85 125 -169 0 
72 124 -181 0 
-76 91 108 0 
4 18 -71 0 
75 -146 -146 0 
-20 -136 -148 0 
-15 26 -149 0 
161 -177 -179 0 
-10 -70 151 0 
-51 -161 169 0 
22 68 -180 0 
-72 -110 -160 0 
-34 -62 -116 0 
-23 174 -181 0 
-63 -75 -139 0 
-150 -161 -164 0 
-63 -110 175 0 
28 -47 101 0 
40 -62 141 0 
-57 67 -78 0 
-34 122 -153 0 
-86 92 193 0 
58 -164 173 0 
-102 -135 176 0 
-53 -55 62 0 
76 130 139 0 
8 11 123 0 
-21 -162 177 0 
-13 -96 -142 0 
47 79 -116 0 
27 -160 -183 0 
-95 -141 174 0 
106 -119 -159 0 
83 84 163 0 
69 185 -192 0 
-159 -175 -176 0 
104 137 179 0 
-30 76 175 0 
6 111 152 0 
120 132 -169 0 
52 126 191 0 
59 156 180 0 
-30 -148 174 0 
4 79 -113 0 
-3 95 -177 0 
-1 43 -167 0 
21 24 -61 0 
-79 87 110 0 
-24 37 -55 0 
1 -34 -136 0 
-119 -151 -152 0 
-21 -99 -159 0 
-49 56 -58 0 
61 137 190 0 
10 -107 164 0 
138 150 183 0 
92 114 -130 0 
-165 -169 -190 0 
24 -36 -99 0 
-22 92 -126 0 
-7 -96 -123 0 
44 88 171 0 
91 -110 -145 0 
12 34 39 0 
21 35 -171 0 
68 -82 -141 0 
4 104 173 0 
52 -70 -78 0 
-21 57 -126 0 
-18 56 -120 0 
-66 71 -119 0 
75 -76 -78 0 
66 -96 113 0 
-4 -97 100 0 
30 -108 188 0 
168 169 -186 0 
36 -86 -96 0 
-6 139 -178 0 
25 -47 147 0 
61 -75 99 0 
3 -27 158 0 
-1 51 175 0 
9 -24 168 0 
-18 67 94 0 
82 -98 -115 0 
-36 148 -179 0 
-17 24 114 0 
-54 64 70 0 
-21 -100 -138 0 
-29 61 -139 0 
-36 83 -112 0 
117 175 183 0 
-67 84 -155 0 
17 110 -113 0 
-102 -117 153 0 
-106 159 172 0 
86 160 171 0 
-77 -102 126 0 
-62 -103 -133 0 
29 155 168 0 
-55 91 -118 0 
-26 -44 -57 0 
-29 161 -165 0 
4 60 -82 0 
85 162 -188 0 
-21 36 -131 0 
50 -185 -186 0 
-10 -20 -35 0 
34 50 -171 0 
-101 177 -183 0 
